Na107 Cl108
1.0
  17.0760000000000005    0.0000000000000000    0.0000000000000000
   0.0000000000000000   17.0760000000000005    0.0000000000000000
   0.0000000000000000    0.0000000000000000   17.0760000000000005
Na Cl
107 108
direct
   0.0000000000000000    0.0000000000000000    0.3333333333333333 Na+
   0.0000000000000000    0.0000000000000000    0.6666666666666666 Na+
   0.0000000000000000    0.3333333333333333    0.0000000000000000 Na+
   0.0000000000000000    0.3333333333333333    0.3333333333333333 Na+
   0.0000000000000000    0.3333333333333333    0.6666666666666666 Na+
   0.0000000000000000    0.6666666666666666    0.0000000000000000 Na+
   0.0000000000000000    0.6666666666666666    0.3333333333333333 Na+
   0.0000000000000000    0.6666666666666666    0.6666666666666666 Na+
   0.3333333333333333    0.0000000000000000    0.0000000000000000 Na+
   0.3333333333333333    0.0000000000000000    0.3333333333333333 Na+
   0.3333333333333333    0.0000000000000000    0.6666666666666666 Na+
   0.3333333333333333    0.3333333333333333    0.0000000000000000 Na+
   0.3333333333333333    0.3333333333333333    0.3333333333333333 Na+
   0.3333333333333333    0.3333333333333333    0.6666666666666666 Na+
   0.3333333333333333    0.6666666666666666    0.0000000000000000 Na+
   0.3333333333333333    0.6666666666666666    0.3333333333333333 Na+
   0.3333333333333333    0.6666666666666666    0.6666666666666666 Na+
   0.6666666666666666    0.0000000000000000    0.0000000000000000 Na+
   0.6666666666666666    0.0000000000000000    0.3333333333333333 Na+
   0.6666666666666666    0.0000000000000000    0.6666666666666666 Na+
   0.6666666666666666    0.3333333333333333    0.0000000000000000 Na+
   0.6666666666666666    0.3333333333333333    0.3333333333333333 Na+
   0.6666666666666666    0.3333333333333333    0.6666666666666666 Na+
   0.6666666666666666    0.6666666666666666    0.0000000000000000 Na+
   0.6666666666666666    0.6666666666666666    0.3333333333333333 Na+
   0.6666666666666666    0.6666666666666666    0.6666666666666666 Na+
   0.1666666666666667    0.1666666666666667    0.0000000000000000 Na+
   0.1666666666666667    0.1666666666666667    0.3333333333333333 Na+
   0.1666666666666667    0.1666666666666667    0.6666666666666666 Na+
   0.1666666666666667    0.5000000000000000    0.0000000000000000 Na+
   0.1666666666666667    0.5000000000000000    0.3333333333333333 Na+
   0.1666666666666667    0.5000000000000000    0.6666666666666666 Na+
   0.1666666666666667    0.8333333333333334    0.0000000000000000 Na+
   0.1666666666666667    0.8333333333333334    0.3333333333333333 Na+
   0.1666666666666667    0.8333333333333334    0.6666666666666666 Na+
   0.5000000000000000    0.1666666666666667    0.0000000000000000 Na+
   0.5000000000000000    0.1666666666666667    0.3333333333333333 Na+
   0.5000000000000000    0.1666666666666667    0.6666666666666666 Na+
   0.5000000000000000    0.5000000000000000    0.0000000000000000 Na+
   0.5000000000000000    0.5000000000000000    0.3333333333333333 Na+
   0.5000000000000000    0.5000000000000000    0.6666666666666666 Na+
   0.5000000000000000    0.8333333333333334    0.0000000000000000 Na+
   0.5000000000000000    0.8333333333333334    0.3333333333333333 Na+
   0.5000000000000000    0.8333333333333334    0.6666666666666666 Na+
   0.8333333333333334    0.1666666666666667    0.0000000000000000 Na+
   0.8333333333333334    0.1666666666666667    0.3333333333333333 Na+
   0.8333333333333334    0.1666666666666667    0.6666666666666666 Na+
   0.8333333333333334    0.5000000000000000    0.0000000000000000 Na+
   0.8333333333333334    0.5000000000000000    0.3333333333333333 Na+
   0.8333333333333334    0.5000000000000000    0.6666666666666666 Na+
   0.8333333333333334    0.8333333333333334    0.0000000000000000 Na+
   0.8333333333333334    0.8333333333333334    0.3333333333333333 Na+
   0.8333333333333334    0.8333333333333334    0.6666666666666666 Na+
   0.1666666666666667    0.0000000000000000    0.1666666666666667 Na+
   0.1666666666666667    0.0000000000000000    0.5000000000000000 Na+
   0.1666666666666667    0.0000000000000000    0.8333333333333334 Na+
   0.1666666666666667    0.3333333333333333    0.1666666666666667 Na+
   0.1666666666666667    0.3333333333333333    0.5000000000000000 Na+
   0.1666666666666667    0.3333333333333333    0.8333333333333334 Na+
   0.1666666666666667    0.6666666666666666    0.1666666666666667 Na+
   0.1666666666666667    0.6666666666666666    0.5000000000000000 Na+
   0.1666666666666667    0.6666666666666666    0.8333333333333334 Na+
   0.5000000000000000    0.0000000000000000    0.1666666666666667 Na+
   0.5000000000000000    0.0000000000000000    0.5000000000000000 Na+
   0.5000000000000000    0.0000000000000000    0.8333333333333334 Na+
   0.5000000000000000    0.3333333333333333    0.1666666666666667 Na+
   0.5000000000000000    0.3333333333333333    0.5000000000000000 Na+
   0.5000000000000000    0.3333333333333333    0.8333333333333334 Na+
   0.5000000000000000    0.6666666666666666    0.1666666666666667 Na+
   0.5000000000000000    0.6666666666666666    0.5000000000000000 Na+
   0.5000000000000000    0.6666666666666666    0.8333333333333334 Na+
   0.8333333333333334    0.0000000000000000    0.1666666666666667 Na+
   0.8333333333333334    0.0000000000000000    0.5000000000000000 Na+
   0.8333333333333334    0.0000000000000000    0.8333333333333334 Na+
   0.8333333333333334    0.3333333333333333    0.1666666666666667 Na+
   0.8333333333333334    0.3333333333333333    0.5000000000000000 Na+
   0.8333333333333334    0.3333333333333333    0.8333333333333334 Na+
   0.8333333333333334    0.6666666666666666    0.1666666666666667 Na+
   0.8333333333333334    0.6666666666666666    0.5000000000000000 Na+
   0.8333333333333334    0.6666666666666666    0.8333333333333334 Na+
   0.0000000000000000    0.1666666666666667    0.1666666666666667 Na+
   0.0000000000000000    0.1666666666666667    0.5000000000000000 Na+
   0.0000000000000000    0.1666666666666667    0.8333333333333334 Na+
   0.0000000000000000    0.5000000000000000    0.1666666666666667 Na+
   0.0000000000000000    0.5000000000000000    0.5000000000000000 Na+
   0.0000000000000000    0.5000000000000000    0.8333333333333334 Na+
   0.0000000000000000    0.8333333333333334    0.1666666666666667 Na+
   0.0000000000000000    0.8333333333333334    0.5000000000000000 Na+
   0.0000000000000000    0.8333333333333334    0.8333333333333334 Na+
   0.3333333333333333    0.1666666666666667    0.1666666666666667 Na+
   0.3333333333333333    0.1666666666666667    0.5000000000000000 Na+
   0.3333333333333333    0.1666666666666667    0.8333333333333334 Na+
   0.3333333333333333    0.5000000000000000    0.1666666666666667 Na+
   0.3333333333333333    0.5000000000000000    0.5000000000000000 Na+
   0.3333333333333333    0.5000000000000000    0.8333333333333334 Na+
   0.3333333333333333    0.8333333333333334    0.1666666666666667 Na+
   0.3333333333333333    0.8333333333333334    0.5000000000000000 Na+
   0.3333333333333333    0.8333333333333334    0.8333333333333334 Na+
   0.6666666666666666    0.1666666666666667    0.1666666666666667 Na+
   0.6666666666666666    0.1666666666666667    0.5000000000000000 Na+
   0.6666666666666666    0.1666666666666667    0.8333333333333334 Na+
   0.6666666666666666    0.5000000000000000    0.1666666666666667 Na+
   0.6666666666666666    0.5000000000000000    0.5000000000000000 Na+
   0.6666666666666666    0.5000000000000000    0.8333333333333334 Na+
   0.6666666666666666    0.8333333333333334    0.1666666666666667 Na+
   0.6666666666666666    0.8333333333333334    0.5000000000000000 Na+
   0.6666666666666666    0.8333333333333334    0.8333333333333334 Na+
   0.1666666666666667    0.1666666666666667    0.1666666666666667 Cl-
   0.1666666666666667    0.1666666666666667    0.5000000000000000 Cl-
   0.1666666666666667    0.1666666666666667    0.8333333333333334 Cl-
   0.1666666666666667    0.5000000000000000    0.1666666666666667 Cl-
   0.1666666666666667    0.5000000000000000    0.5000000000000000 Cl-
   0.1666666666666667    0.5000000000000000    0.8333333333333334 Cl-
   0.1666666666666667    0.8333333333333334    0.1666666666666667 Cl-
   0.1666666666666667    0.8333333333333334    0.5000000000000000 Cl-
   0.1666666666666667    0.8333333333333334    0.8333333333333334 Cl-
   0.5000000000000000    0.1666666666666667    0.1666666666666667 Cl-
   0.5000000000000000    0.1666666666666667    0.5000000000000000 Cl-
   0.5000000000000000    0.1666666666666667    0.8333333333333334 Cl-
   0.5000000000000000    0.5000000000000000    0.1666666666666667 Cl-
   0.5000000000000000    0.5000000000000000    0.5000000000000000 Cl-
   0.5000000000000000    0.5000000000000000    0.8333333333333334 Cl-
   0.5000000000000000    0.8333333333333334    0.1666666666666667 Cl-
   0.5000000000000000    0.8333333333333334    0.5000000000000000 Cl-
   0.5000000000000000    0.8333333333333334    0.8333333333333334 Cl-
   0.8333333333333334    0.1666666666666667    0.1666666666666667 Cl-
   0.8333333333333334    0.1666666666666667    0.5000000000000000 Cl-
   0.8333333333333334    0.1666666666666667    0.8333333333333334 Cl-
   0.8333333333333334    0.5000000000000000    0.1666666666666667 Cl-
   0.8333333333333334    0.5000000000000000    0.5000000000000000 Cl-
   0.8333333333333334    0.5000000000000000    0.8333333333333334 Cl-
   0.8333333333333334    0.8333333333333334    0.1666666666666667 Cl-
   0.8333333333333334    0.8333333333333334    0.5000000000000000 Cl-
   0.8333333333333334    0.8333333333333334    0.8333333333333334 Cl-
   0.0000000000000000    0.0000000000000000    0.1666666666666667 Cl-
   0.0000000000000000    0.0000000000000000    0.5000000000000000 Cl-
   0.0000000000000000    0.0000000000000000    0.8333333333333334 Cl-
   0.0000000000000000    0.3333333333333333    0.1666666666666667 Cl-
   0.0000000000000000    0.3333333333333333    0.5000000000000000 Cl-
   0.0000000000000000    0.3333333333333333    0.8333333333333334 Cl-
   0.0000000000000000    0.6666666666666666    0.1666666666666667 Cl-
   0.0000000000000000    0.6666666666666666    0.5000000000000000 Cl-
   0.0000000000000000    0.6666666666666666    0.8333333333333334 Cl-
   0.3333333333333333    0.0000000000000000    0.1666666666666667 Cl-
   0.3333333333333333    0.0000000000000000    0.5000000000000000 Cl-
   0.3333333333333333    0.0000000000000000    0.8333333333333334 Cl-
   0.3333333333333333    0.3333333333333333    0.1666666666666667 Cl-
   0.3333333333333333    0.3333333333333333    0.5000000000000000 Cl-
   0.3333333333333333    0.3333333333333333    0.8333333333333334 Cl-
   0.3333333333333333    0.6666666666666666    0.1666666666666667 Cl-
   0.3333333333333333    0.6666666666666666    0.5000000000000000 Cl-
   0.3333333333333333    0.6666666666666666    0.8333333333333334 Cl-
   0.6666666666666666    0.0000000000000000    0.1666666666666667 Cl-
   0.6666666666666666    0.0000000000000000    0.5000000000000000 Cl-
   0.6666666666666666    0.0000000000000000    0.8333333333333334 Cl-
   0.6666666666666666    0.3333333333333333    0.1666666666666667 Cl-
   0.6666666666666666    0.3333333333333333    0.5000000000000000 Cl-
   0.6666666666666666    0.3333333333333333    0.8333333333333334 Cl-
   0.6666666666666666    0.6666666666666666    0.1666666666666667 Cl-
   0.6666666666666666    0.6666666666666666    0.5000000000000000 Cl-
   0.6666666666666666    0.6666666666666666    0.8333333333333334 Cl-
   0.0000000000000000    0.1666666666666667    0.0000000000000000 Cl-
   0.0000000000000000    0.1666666666666667    0.3333333333333333 Cl-
   0.0000000000000000    0.1666666666666667    0.6666666666666666 Cl-
   0.0000000000000000    0.5000000000000000    0.0000000000000000 Cl-
   0.0000000000000000    0.5000000000000000    0.3333333333333333 Cl-
   0.0000000000000000    0.5000000000000000    0.6666666666666666 Cl-
   0.0000000000000000    0.8333333333333334    0.0000000000000000 Cl-
   0.0000000000000000    0.8333333333333334    0.3333333333333333 Cl-
   0.0000000000000000    0.8333333333333334    0.6666666666666666 Cl-
   0.3333333333333333    0.1666666666666667    0.0000000000000000 Cl-
   0.3333333333333333    0.1666666666666667    0.3333333333333333 Cl-
   0.3333333333333333    0.1666666666666667    0.6666666666666666 Cl-
   0.3333333333333333    0.5000000000000000    0.0000000000000000 Cl-
   0.3333333333333333    0.5000000000000000    0.3333333333333333 Cl-
   0.3333333333333333    0.5000000000000000    0.6666666666666666 Cl-
   0.3333333333333333    0.8333333333333334    0.0000000000000000 Cl-
   0.3333333333333333    0.8333333333333334    0.3333333333333333 Cl-
   0.3333333333333333    0.8333333333333334    0.6666666666666666 Cl-
   0.6666666666666666    0.1666666666666667    0.0000000000000000 Cl-
   0.6666666666666666    0.1666666666666667    0.3333333333333333 Cl-
   0.6666666666666666    0.1666666666666667    0.6666666666666666 Cl-
   0.6666666666666666    0.5000000000000000    0.0000000000000000 Cl-
   0.6666666666666666    0.5000000000000000    0.3333333333333333 Cl-
   0.6666666666666666    0.5000000000000000    0.6666666666666666 Cl-
   0.6666666666666666    0.8333333333333334    0.0000000000000000 Cl-
   0.6666666666666666    0.8333333333333334    0.3333333333333333 Cl-
   0.6666666666666666    0.8333333333333334    0.6666666666666666 Cl-
   0.1666666666666667    0.0000000000000000    0.0000000000000000 Cl-
   0.1666666666666667    0.0000000000000000    0.3333333333333333 Cl-
   0.1666666666666667    0.0000000000000000    0.6666666666666666 Cl-
   0.1666666666666667    0.3333333333333333    0.0000000000000000 Cl-
   0.1666666666666667    0.3333333333333333    0.3333333333333333 Cl-
   0.1666666666666667    0.3333333333333333    0.6666666666666666 Cl-
   0.1666666666666667    0.6666666666666666    0.0000000000000000 Cl-
   0.1666666666666667    0.6666666666666666    0.3333333333333333 Cl-
   0.1666666666666667    0.6666666666666666    0.6666666666666666 Cl-
   0.5000000000000000    0.0000000000000000    0.0000000000000000 Cl-
   0.5000000000000000    0.0000000000000000    0.3333333333333333 Cl-
   0.5000000000000000    0.0000000000000000    0.6666666666666666 Cl-
   0.5000000000000000    0.3333333333333333    0.0000000000000000 Cl-
   0.5000000000000000    0.3333333333333333    0.3333333333333333 Cl-
   0.5000000000000000    0.3333333333333333    0.6666666666666666 Cl-
   0.5000000000000000    0.6666666666666666    0.0000000000000000 Cl-
   0.5000000000000000    0.6666666666666666    0.3333333333333333 Cl-
   0.5000000000000000    0.6666666666666666    0.6666666666666666 Cl-
   0.8333333333333334    0.0000000000000000    0.0000000000000000 Cl-
   0.8333333333333334    0.0000000000000000    0.3333333333333333 Cl-
   0.8333333333333334    0.0000000000000000    0.6666666666666666 Cl-
   0.8333333333333334    0.3333333333333333    0.0000000000000000 Cl-
   0.8333333333333334    0.3333333333333333    0.3333333333333333 Cl-
   0.8333333333333334    0.3333333333333333    0.6666666666666666 Cl-
   0.8333333333333334    0.6666666666666666    0.0000000000000000 Cl-
   0.8333333333333334    0.6666666666666666    0.3333333333333333 Cl-
   0.8333333333333334    0.6666666666666666    0.6666666666666666 Cl-
